NAME:  test1
TYPE: AGTSP
COMMENT: gtsp tours
DIMENSION:  73
GTSP_SETS: 19
EDGE_WEIGHT_TYPE: EXPLICIT
EDGE_WEIGHT_FORMAT: FULL_MATRIX 
EDGE_WEIGHT_SECTION
999999	0	999999	999999	35913	35913	35905	999999	35949	35949	999999	999999	35917	35917	35909	999999	35948	35948	999999	999999	35968	35968	999999	999999	35956	35956	999999	999999	35929	35929	35929	35921	35922	35922	35922	35914	35950	35950	999999	999999	35905	35905	35897	999999	35937	35937	35937	35929	35945	35945	999999	999999	35914	35914	35906	999999	35930	35930	35930	35922	35935	35935	35935	35927	35940	35940	999999	999999	35941
999999	999999	0	999999	35913	35913	35913	35905	35949	35949	35949	999999	35917	35917	35917	35909	35948	35948	35948	999999	35968	35968	35968	999999	35956	35956	35956	999999	35929	35929	35929	999999	35922	35922	35922	999999	35950	35950	35950	999999	35905	35905	35905	35897	35937	35937	35937	999999	35945	35945	35945	999999	35914	35914	35914	35906	35930	35930	35930	999999	35935	35935	35935	999999	35940	35940	35940	999999	35941
999999	999999	999999	0	35913	35913	35913	35913	35949	35949	35949	35949	35917	35917	35917	35917	35948	35948	35948	35948	35968	35968	35968	35968	35956	35956	35956	35956	35929	35929	35929	35929	35922	35922	35922	35922	35950	35950	35950	35950	35905	35905	35905	35905	35937	35937	35937	35937	35945	35945	35945	35945	35914	35914	35914	35914	35930	35930	35930	35930	35935	35935	35935	35935	35940	35940	35940	35940	35941
0	999999	999999	999999	35913	35905	999999	999999	35949	35949	35949	35941	35917	35909	999999	999999	35948	35948	35948	35940	35968	999999	999999	999999	35956	35956	35956	35948	35929	35929	35921	999999	35922	35922	35914	999999	35950	35950	35950	35942	35905	35897	999999	999999	35937	35937	35929	999999	35945	35945	35945	35937	35914	35906	999999	999999	35930	35930	35922	999999	35935	35935	35927	999999	35940	35940	35940	35932	35941
35913	35913	35905	999999	999999	0	999999	999999	35934	35934	35934	35926	35905	35905	35897	999999	35937	35937	35937	35929	35954	35954	999999	999999	35944	35944	999999	999999	35914	35914	35906	999999	35907	35907	35899	999999	35942	35942	999999	999999	35907	35907	35899	999999	35926	35926	35926	35918	35934	35934	35934	35926	35917	35917	35909	999999	35929	35929	35929	35921	35933	35933	35933	35925	35927	35927	35927	35919	35926
35913	35913	35913	35905	999999	999999	0	999999	35934	35934	35934	999999	35905	35905	35905	35897	35937	35937	35937	999999	35954	35954	35954	999999	35944	35944	35944	999999	35914	35914	35914	35906	35907	35907	35907	35899	35942	35942	35942	999999	35907	35907	35907	35899	35926	35926	35926	999999	35934	35934	35934	999999	35917	35917	35917	35909	35929	35929	35929	999999	35933	35933	35933	999999	35927	35927	35927	999999	35926
35913	35913	35913	35913	999999	999999	999999	0	35934	35934	35934	35934	35905	35905	35905	35905	35937	35937	35937	35937	35954	35954	35954	35954	35944	35944	35944	35944	35914	35914	35914	35914	35907	35907	35907	35907	35942	35942	35942	35942	35907	35907	35907	35907	35926	35926	35926	35926	35934	35934	35934	35934	35917	35917	35917	35917	35929	35929	35929	35929	35933	35933	35933	35933	35927	35927	35927	35927	35926
35913	35905	999999	999999	0	999999	999999	999999	35934	35934	35926	999999	35905	35897	999999	999999	35937	35937	35929	999999	35954	35954	35954	35946	35944	35944	35944	35936	35914	35906	999999	999999	35907	35899	999999	999999	35942	35942	35942	35934	35907	35899	999999	999999	35926	35926	35918	999999	35934	35934	35926	999999	35917	35909	999999	999999	35929	35929	35921	999999	35933	35933	35925	999999	35927	35927	35919	999999	35926
35949	35949	999999	999999	35934	35934	35934	35926	999999	0	999999	999999	35934	35934	35934	35926	35942	35942	999999	999999	35941	35941	999999	999999	35939	35939	35939	35931	35924	35924	35924	35916	35925	35925	35925	35917	35952	35952	999999	999999	35943	35943	999999	999999	35935	35935	35935	35927	35939	35939	35939	35931	35951	35951	999999	999999	35956	35956	999999	999999	35956	35956	999999	999999	35928	35928	35928	35920	35906
35949	35949	35949	999999	35934	35934	35934	999999	999999	999999	0	999999	35934	35934	35934	999999	35942	35942	35942	999999	35941	35941	35941	999999	35939	35939	35939	999999	35924	35924	35924	999999	35925	35925	35925	999999	35952	35952	35952	999999	35943	35943	35943	999999	35935	35935	35935	999999	35939	35939	35939	999999	35951	35951	35951	999999	35956	35956	35956	999999	35956	35956	35956	999999	35928	35928	35928	999999	35906
35949	35949	35949	35949	35934	35934	35934	35934	999999	999999	999999	0	35934	35934	35934	35934	35942	35942	35942	35942	35941	35941	35941	35941	35939	35939	35939	35939	35924	35924	35924	35924	35925	35925	35925	35925	35952	35952	35952	35952	35943	35943	35943	35943	35935	35935	35935	35935	35939	35939	35939	35939	35951	35951	35951	35951	35956	35956	35956	35956	35956	35956	35956	35956	35928	35928	35928	35928	35906
35949	35949	35949	35941	35934	35934	35926	999999	0	999999	999999	999999	35934	35934	35926	999999	35942	35942	35942	35934	35941	35941	35941	35933	35939	35939	35931	999999	35924	35924	35916	999999	35925	35925	35917	999999	35952	35952	35952	35944	35943	35943	35943	35935	35935	35935	35927	999999	35939	35939	35931	999999	35951	35951	35951	35943	35956	35956	35956	35948	35956	35956	35956	35948	35928	35928	35920	999999	35906
35917	35917	35909	999999	35905	35905	35897	999999	35934	35934	35934	35926	999999	0	999999	999999	35930	35930	35930	35922	35948	35948	999999	999999	35937	35937	35937	35929	35910	35910	35902	999999	35908	35908	35900	999999	35935	35935	35935	35927	35910	35910	35902	999999	35919	35919	35911	999999	35927	35927	35927	35919	35915	35915	35907	999999	35924	35924	35924	35916	35926	35926	35926	35918	35920	35920	35920	35912	35927
35917	35917	35917	35909	35905	35905	35905	35897	35934	35934	35934	999999	999999	999999	0	999999	35930	35930	35930	999999	35948	35948	35948	999999	35937	35937	35937	999999	35910	35910	35910	35902	35908	35908	35908	35900	35935	35935	35935	999999	35910	35910	35910	35902	35919	35919	35919	35911	35927	35927	35927	999999	35915	35915	35915	35907	35924	35924	35924	999999	35926	35926	35926	999999	35920	35920	35920	999999	35927
35917	35917	35917	35917	35905	35905	35905	35905	35934	35934	35934	35934	999999	999999	999999	0	35930	35930	35930	35930	35948	35948	35948	35948	35937	35937	35937	35937	35910	35910	35910	35910	35908	35908	35908	35908	35935	35935	35935	35935	35910	35910	35910	35910	35919	35919	35919	35919	35927	35927	35927	35927	35915	35915	35915	35915	35924	35924	35924	35924	35926	35926	35926	35926	35920	35920	35920	35920	35927
35917	35909	999999	999999	35905	35897	999999	999999	35934	35934	35926	999999	0	999999	999999	999999	35930	35930	35922	999999	35948	35948	35948	35940	35937	35937	35929	999999	35910	35902	999999	999999	35908	35900	999999	999999	35935	35935	35927	999999	35910	35902	999999	999999	35919	35911	999999	999999	35927	35927	35919	999999	35915	35907	999999	999999	35924	35924	35916	999999	35926	35926	35918	999999	35920	35920	35912	999999	35927
35948	35948	999999	999999	35937	35937	35937	35929	35942	35942	999999	999999	35930	35930	35930	35922	999999	0	999999	999999	35922	35922	35922	35914	35909	35909	35901	999999	35924	35924	35924	35916	35935	35935	35935	35927	35909	35909	35901	999999	35940	35940	999999	999999	35909	35909	35901	999999	35901	35901	35893	999999	35936	35936	35936	35928	35928	35928	35928	35920	35924	35924	35924	35916	35912	35912	35904	999999	35940
35948	35948	35948	999999	35937	35937	35937	999999	35942	35942	35942	999999	35930	35930	35930	999999	999999	999999	0	999999	35922	35922	35922	999999	35909	35909	35909	35901	35924	35924	35924	999999	35935	35935	35935	999999	35909	35909	35909	35901	35940	35940	35940	999999	35909	35909	35909	35901	35901	35901	35901	35893	35936	35936	35936	999999	35928	35928	35928	999999	35924	35924	35924	999999	35912	35912	35912	35904	35940
35948	35948	35948	35948	35937	35937	35937	35937	35942	35942	35942	35942	35930	35930	35930	35930	999999	999999	999999	0	35922	35922	35922	35922	35909	35909	35909	35909	35924	35924	35924	35924	35935	35935	35935	35935	35909	35909	35909	35909	35940	35940	35940	35940	35909	35909	35909	35909	35901	35901	35901	35901	35936	35936	35936	35936	35928	35928	35928	35928	35924	35924	35924	35924	35912	35912	35912	35912	35940
35948	35948	35948	35940	35937	35937	35929	999999	35942	35942	35942	35934	35930	35930	35922	999999	0	999999	999999	999999	35922	35922	35914	999999	35909	35901	999999	999999	35924	35924	35916	999999	35935	35935	35927	999999	35909	35901	999999	999999	35940	35940	35940	35932	35909	35901	999999	999999	35901	35893	999999	999999	35936	35936	35928	999999	35928	35928	35920	999999	35924	35924	35916	999999	35912	35904	999999	999999	35940
35968	35968	999999	999999	35954	35954	999999	999999	35941	35941	999999	999999	35948	35948	999999	999999	35922	35922	35922	35914	999999	0	999999	999999	35911	35911	35903	999999	35938	35938	35938	35930	35949	35949	999999	999999	35930	35930	35930	35922	35960	35960	999999	999999	35929	35929	35929	35921	35923	35923	35923	35915	35959	35959	999999	999999	35952	35952	999999	999999	35948	35948	999999	999999	35925	35925	35925	35917	35944
35968	35968	35968	999999	35954	35954	35954	999999	35941	35941	35941	999999	35948	35948	35948	999999	35922	35922	35922	999999	999999	999999	0	999999	35911	35911	35911	35903	35938	35938	35938	999999	35949	35949	35949	999999	35930	35930	35930	999999	35960	35960	35960	999999	35929	35929	35929	999999	35923	35923	35923	999999	35959	35959	35959	999999	35952	35952	35952	999999	35948	35948	35948	999999	35925	35925	35925	999999	35944
35968	35968	35968	35968	35954	35954	35954	35954	35941	35941	35941	35941	35948	35948	35948	35948	35922	35922	35922	35922	999999	999999	999999	0	35911	35911	35911	35911	35938	35938	35938	35938	35949	35949	35949	35949	35930	35930	35930	35930	35960	35960	35960	35960	35929	35929	35929	35929	35923	35923	35923	35923	35959	35959	35959	35959	35952	35952	35952	35952	35948	35948	35948	35948	35925	35925	35925	35925	35944
35968	999999	999999	999999	35954	35954	35954	35946	35941	35941	35941	35933	35948	35948	35948	35940	35922	35922	35914	999999	0	999999	999999	999999	35911	35903	999999	999999	35938	35938	35930	999999	35949	35949	35949	35941	35930	35930	35922	999999	35960	35960	35960	35952	35929	35929	35921	999999	35923	35923	35915	999999	35959	35959	35959	35951	35952	35952	35952	35944	35948	35948	35948	35940	35925	35925	35917	999999	35944
35956	35956	999999	999999	35944	35944	999999	999999	35939	35939	35939	35931	35937	35937	35937	35929	35909	35909	35901	999999	35911	35911	35903	999999	999999	0	999999	999999	35929	35929	35929	35921	35940	35940	35940	35932	35918	35918	35910	999999	35949	35949	999999	999999	35917	35917	35909	999999	35910	35910	35902	999999	35946	35946	999999	999999	35939	35939	35939	35931	35935	35935	35935	35927	35915	35915	35907	999999	35940
35956	35956	35956	999999	35944	35944	35944	999999	35939	35939	35939	999999	35937	35937	35937	999999	35909	35909	35909	35901	35911	35911	35911	35903	999999	999999	0	999999	35929	35929	35929	999999	35940	35940	35940	999999	35918	35918	35918	35910	35949	35949	35949	999999	35917	35917	35917	35909	35910	35910	35910	35902	35946	35946	35946	999999	35939	35939	35939	999999	35935	35935	35935	999999	35915	35915	35915	35907	35940
35956	35956	35956	35956	35944	35944	35944	35944	35939	35939	35939	35939	35937	35937	35937	35937	35909	35909	35909	35909	35911	35911	35911	35911	999999	999999	999999	0	35929	35929	35929	35929	35940	35940	35940	35940	35918	35918	35918	35918	35949	35949	35949	35949	35917	35917	35917	35917	35910	35910	35910	35910	35946	35946	35946	35946	35939	35939	35939	35939	35935	35935	35935	35935	35915	35915	35915	35915	35940
35956	35956	35956	35948	35944	35944	35944	35936	35939	35939	35931	999999	35937	35937	35929	999999	35909	35901	999999	999999	35911	35903	999999	999999	0	999999	999999	999999	35929	35929	35921	999999	35940	35940	35932	999999	35918	35910	999999	999999	35949	35949	35949	35941	35917	35909	999999	999999	35910	35902	999999	999999	35946	35946	35946	35938	35939	35939	35931	999999	35935	35935	35927	999999	35915	35907	999999	999999	35940
35929	35929	35929	35921	35914	35914	35906	999999	35924	35924	35924	35916	35910	35910	35902	999999	35924	35924	35924	35916	35938	35938	35938	35930	35929	35929	35929	35921	999999	0	999999	999999	35909	35909	35901	999999	35932	35932	35932	35924	35922	35922	35922	35914	35914	35914	35906	999999	35921	35921	35921	35913	35926	35926	35926	35918	35930	35930	35930	35922	35931	35931	35931	35923	35911	35911	35903	999999	35918
35929	35929	35929	999999	35914	35914	35914	35906	35924	35924	35924	999999	35910	35910	35910	35902	35924	35924	35924	999999	35938	35938	35938	999999	35929	35929	35929	999999	999999	999999	0	999999	35909	35909	35909	35901	35932	35932	35932	999999	35922	35922	35922	999999	35914	35914	35914	35906	35921	35921	35921	999999	35926	35926	35926	999999	35930	35930	35930	999999	35931	35931	35931	999999	35911	35911	35911	35903	35918
35929	35929	35929	35929	35914	35914	35914	35914	35924	35924	35924	35924	35910	35910	35910	35910	35924	35924	35924	35924	35938	35938	35938	35938	35929	35929	35929	35929	999999	999999	999999	0	35909	35909	35909	35909	35932	35932	35932	35932	35922	35922	35922	35922	35914	35914	35914	35914	35921	35921	35921	35921	35926	35926	35926	35926	35930	35930	35930	35930	35931	35931	35931	35931	35911	35911	35911	35911	35918
35929	35929	35921	999999	35914	35906	999999	999999	35924	35924	35916	999999	35910	35902	999999	999999	35924	35924	35916	999999	35938	35938	35930	999999	35929	35929	35921	999999	0	999999	999999	999999	35909	35901	999999	999999	35932	35932	35924	999999	35922	35922	35914	999999	35914	35906	999999	999999	35921	35921	35913	999999	35926	35926	35918	999999	35930	35930	35922	999999	35931	35931	35923	999999	35911	35903	999999	999999	35918
35922	35922	35922	35914	35907	35907	35899	999999	35925	35925	35925	35917	35908	35908	35900	999999	35935	35935	35935	35927	35949	35949	999999	999999	35940	35940	35940	35932	35909	35909	35901	999999	999999	0	999999	999999	35942	35942	999999	999999	35916	35916	35908	999999	35924	35924	35924	35916	35932	35932	35932	35924	35925	35925	35925	35917	35934	35934	35934	35926	35937	35937	35937	35929	35922	35922	35922	35914	35917
35922	35922	35922	999999	35907	35907	35907	35899	35925	35925	35925	999999	35908	35908	35908	35900	35935	35935	35935	999999	35949	35949	35949	999999	35940	35940	35940	999999	35909	35909	35909	35901	999999	999999	0	999999	35942	35942	35942	999999	35916	35916	35916	35908	35924	35924	35924	999999	35932	35932	35932	999999	35925	35925	35925	999999	35934	35934	35934	999999	35937	35937	35937	999999	35922	35922	35922	999999	35917
35922	35922	35922	35922	35907	35907	35907	35907	35925	35925	35925	35925	35908	35908	35908	35908	35935	35935	35935	35935	35949	35949	35949	35949	35940	35940	35940	35940	35909	35909	35909	35909	999999	999999	999999	0	35942	35942	35942	35942	35916	35916	35916	35916	35924	35924	35924	35924	35932	35932	35932	35932	35925	35925	35925	35925	35934	35934	35934	35934	35937	35937	35937	35937	35922	35922	35922	35922	35917
35922	35922	35914	999999	35907	35899	999999	999999	35925	35925	35917	999999	35908	35900	999999	999999	35935	35935	35927	999999	35949	35949	35949	35941	35940	35940	35932	999999	35909	35901	999999	999999	0	999999	999999	999999	35942	35942	35942	35934	35916	35908	999999	999999	35924	35924	35916	999999	35932	35932	35924	999999	35925	35925	35917	999999	35934	35934	35926	999999	35937	35937	35929	999999	35922	35922	35914	999999	35917
35950	35950	999999	999999	35942	35942	999999	999999	35952	35952	999999	999999	35935	35935	35935	35927	35909	35909	35901	999999	35930	35930	35930	35922	35918	35918	35910	999999	35932	35932	35932	35924	35942	35942	999999	999999	999999	0	999999	999999	35943	35943	999999	999999	35916	35916	35908	999999	35911	35911	35903	999999	35936	35936	35936	35928	35924	35924	35924	35916	35918	35918	35910	999999	35922	35922	35922	35914	35950
35950	35950	35950	999999	35942	35942	35942	999999	35952	35952	35952	999999	35935	35935	35935	999999	35909	35909	35909	35901	35930	35930	35930	999999	35918	35918	35918	35910	35932	35932	35932	999999	35942	35942	35942	999999	999999	999999	0	999999	35943	35943	35943	999999	35916	35916	35916	35908	35911	35911	35911	35903	35936	35936	35936	999999	35924	35924	35924	999999	35918	35918	35918	35910	35922	35922	35922	999999	35950
35950	35950	35950	35950	35942	35942	35942	35942	35952	35952	35952	35952	35935	35935	35935	35935	35909	35909	35909	35909	35930	35930	35930	35930	35918	35918	35918	35918	35932	35932	35932	35932	35942	35942	35942	35942	999999	999999	999999	0	35943	35943	35943	35943	35916	35916	35916	35916	35911	35911	35911	35911	35936	35936	35936	35936	35924	35924	35924	35924	35918	35918	35918	35918	35922	35922	35922	35922	35950
35950	35950	35950	35942	35942	35942	35942	35934	35952	35952	35952	35944	35935	35935	35927	999999	35909	35901	999999	999999	35930	35930	35922	999999	35918	35910	999999	999999	35932	35932	35924	999999	35942	35942	35942	35934	0	999999	999999	999999	35943	35943	35943	35935	35916	35908	999999	999999	35911	35903	999999	999999	35936	35936	35928	999999	35924	35924	35916	999999	35918	35910	999999	999999	35922	35922	35914	999999	35950
35905	35905	35897	999999	35907	35907	35899	999999	35943	35943	999999	999999	35910	35910	35902	999999	35940	35940	999999	999999	35960	35960	999999	999999	35949	35949	999999	999999	35922	35922	35922	35914	35916	35916	35908	999999	35943	35943	999999	999999	999999	0	999999	999999	35929	35929	35929	35921	35937	35937	35937	35929	35910	35910	35902	999999	35925	35925	35925	35917	35930	35930	35930	35922	35932	35932	35932	35924	35936
35905	35905	35905	35897	35907	35907	35907	35899	35943	35943	35943	999999	35910	35910	35910	35902	35940	35940	35940	999999	35960	35960	35960	999999	35949	35949	35949	999999	35922	35922	35922	999999	35916	35916	35916	35908	35943	35943	35943	999999	999999	999999	0	999999	35929	35929	35929	999999	35937	35937	35937	999999	35910	35910	35910	35902	35925	35925	35925	999999	35930	35930	35930	999999	35932	35932	35932	999999	35936
35905	35905	35905	35905	35907	35907	35907	35907	35943	35943	35943	35943	35910	35910	35910	35910	35940	35940	35940	35940	35960	35960	35960	35960	35949	35949	35949	35949	35922	35922	35922	35922	35916	35916	35916	35916	35943	35943	35943	35943	999999	999999	999999	0	35929	35929	35929	35929	35937	35937	35937	35937	35910	35910	35910	35910	35925	35925	35925	35925	35930	35930	35930	35930	35932	35932	35932	35932	35936
35905	35897	999999	999999	35907	35899	999999	999999	35943	35943	35943	35935	35910	35902	999999	999999	35940	35940	35940	35932	35960	35960	35960	35952	35949	35949	35949	35941	35922	35922	35914	999999	35916	35908	999999	999999	35943	35943	35943	35935	0	999999	999999	999999	35929	35929	35921	999999	35937	35937	35929	999999	35910	35902	999999	999999	35925	35925	35917	999999	35930	35930	35922	999999	35932	35932	35924	999999	35936
35937	35937	35937	35929	35926	35926	35926	35918	35935	35935	35935	35927	35919	35919	35911	999999	35909	35909	35901	999999	35929	35929	35929	35921	35917	35917	35909	999999	35914	35914	35906	999999	35924	35924	35924	35916	35916	35916	35908	999999	35929	35929	35929	35921	999999	0	999999	999999	35906	35906	35898	999999	35927	35927	35927	35919	35923	35923	35923	35915	35921	35921	35921	35913	35906	35906	35898	999999	35932
35937	35937	35937	999999	35926	35926	35926	999999	35935	35935	35935	999999	35919	35919	35919	35911	35909	35909	35909	35901	35929	35929	35929	999999	35917	35917	35917	35909	35914	35914	35914	35906	35924	35924	35924	999999	35916	35916	35916	35908	35929	35929	35929	999999	999999	999999	0	999999	35906	35906	35906	35898	35927	35927	35927	999999	35923	35923	35923	999999	35921	35921	35921	999999	35906	35906	35906	35898	35932
35937	35937	35937	35937	35926	35926	35926	35926	35935	35935	35935	35935	35919	35919	35919	35919	35909	35909	35909	35909	35929	35929	35929	35929	35917	35917	35917	35917	35914	35914	35914	35914	35924	35924	35924	35924	35916	35916	35916	35916	35929	35929	35929	35929	999999	999999	999999	0	35906	35906	35906	35906	35927	35927	35927	35927	35923	35923	35923	35923	35921	35921	35921	35921	35906	35906	35906	35906	35932
35937	35937	35929	999999	35926	35926	35918	999999	35935	35935	35927	999999	35919	35911	999999	999999	35909	35901	999999	999999	35929	35929	35921	999999	35917	35909	999999	999999	35914	35906	999999	999999	35924	35924	35916	999999	35916	35908	999999	999999	35929	35929	35921	999999	0	999999	999999	999999	35906	35898	999999	999999	35927	35927	35919	999999	35923	35923	35915	999999	35921	35921	35913	999999	35906	35898	999999	999999	35932
35945	35945	999999	999999	35934	35934	35934	35926	35939	35939	35939	35931	35927	35927	35927	35919	35901	35901	35893	999999	35923	35923	35923	35915	35910	35910	35902	999999	35921	35921	35921	35913	35932	35932	35932	35924	35911	35911	35903	999999	35937	35937	35937	35929	35906	35906	35898	999999	999999	0	999999	999999	35934	35934	35934	35926	35927	35927	35927	35919	35923	35923	35923	35915	35909	35909	35901	999999	35937
35945	35945	35945	999999	35934	35934	35934	999999	35939	35939	35939	999999	35927	35927	35927	999999	35901	35901	35901	35893	35923	35923	35923	999999	35910	35910	35910	35902	35921	35921	35921	999999	35932	35932	35932	999999	35911	35911	35911	35903	35937	35937	35937	999999	35906	35906	35906	35898	999999	999999	0	999999	35934	35934	35934	999999	35927	35927	35927	999999	35923	35923	35923	999999	35909	35909	35909	35901	35937
35945	35945	35945	35945	35934	35934	35934	35934	35939	35939	35939	35939	35927	35927	35927	35927	35901	35901	35901	35901	35923	35923	35923	35923	35910	35910	35910	35910	35921	35921	35921	35921	35932	35932	35932	35932	35911	35911	35911	35911	35937	35937	35937	35937	35906	35906	35906	35906	999999	999999	999999	0	35934	35934	35934	35934	35927	35927	35927	35927	35923	35923	35923	35923	35909	35909	35909	35909	35937
35945	35945	35945	35937	35934	35934	35926	999999	35939	35939	35931	999999	35927	35927	35919	999999	35901	35893	999999	999999	35923	35923	35915	999999	35910	35902	999999	999999	35921	35921	35913	999999	35932	35932	35924	999999	35911	35903	999999	999999	35937	35937	35929	999999	35906	35898	999999	999999	0	999999	999999	999999	35934	35934	35926	999999	35927	35927	35919	999999	35923	35923	35915	999999	35909	35901	999999	999999	35937
35914	35914	35906	999999	35917	35917	35909	999999	35951	35951	999999	999999	35915	35915	35907	999999	35936	35936	35936	35928	35959	35959	999999	999999	35946	35946	999999	999999	35926	35926	35926	35918	35925	35925	35925	35917	35936	35936	35936	35928	35910	35910	35902	999999	35927	35927	35927	35919	35934	35934	35934	35926	999999	0	999999	999999	35914	35914	35906	999999	35920	35920	35920	35912	35933	35933	35933	35925	35944
35914	35914	35914	35906	35917	35917	35917	35909	35951	35951	35951	999999	35915	35915	35915	35907	35936	35936	35936	999999	35959	35959	35959	999999	35946	35946	35946	999999	35926	35926	35926	999999	35925	35925	35925	999999	35936	35936	35936	999999	35910	35910	35910	35902	35927	35927	35927	999999	35934	35934	35934	999999	999999	999999	0	999999	35914	35914	35914	35906	35920	35920	35920	999999	35933	35933	35933	999999	35944
35914	35914	35914	35914	35917	35917	35917	35917	35951	35951	35951	35951	35915	35915	35915	35915	35936	35936	35936	35936	35959	35959	35959	35959	35946	35946	35946	35946	35926	35926	35926	35926	35925	35925	35925	35925	35936	35936	35936	35936	35910	35910	35910	35910	35927	35927	35927	35927	35934	35934	35934	35934	999999	999999	999999	0	35914	35914	35914	35914	35920	35920	35920	35920	35933	35933	35933	35933	35944
35914	35906	999999	999999	35917	35909	999999	999999	35951	35951	35951	35943	35915	35907	999999	999999	35936	35936	35928	999999	35959	35959	35959	35951	35946	35946	35946	35938	35926	35926	35918	999999	35925	35925	35917	999999	35936	35936	35928	999999	35910	35902	999999	999999	35927	35927	35919	999999	35934	35934	35926	999999	0	999999	999999	999999	35914	35906	999999	999999	35920	35920	35912	999999	35933	35933	35925	999999	35944
35930	35930	35930	35922	35929	35929	35929	35921	35956	35956	999999	999999	35924	35924	35924	35916	35928	35928	35928	35920	35952	35952	999999	999999	35939	35939	35939	35931	35930	35930	35930	35922	35934	35934	35934	35926	35924	35924	35924	35916	35925	35925	35925	35917	35923	35923	35923	35915	35927	35927	35927	35919	35914	35914	35906	999999	999999	0	999999	999999	35904	35904	35896	999999	35931	35931	35931	35923	35951
35930	35930	35930	999999	35929	35929	35929	999999	35956	35956	35956	999999	35924	35924	35924	999999	35928	35928	35928	999999	35952	35952	35952	999999	35939	35939	35939	999999	35930	35930	35930	999999	35934	35934	35934	999999	35924	35924	35924	999999	35925	35925	35925	999999	35923	35923	35923	999999	35927	35927	35927	999999	35914	35914	35914	35906	999999	999999	0	999999	35904	35904	35904	35896	35931	35931	35931	999999	35951
35930	35930	35930	35930	35929	35929	35929	35929	35956	35956	35956	35956	35924	35924	35924	35924	35928	35928	35928	35928	35952	35952	35952	35952	35939	35939	35939	35939	35930	35930	35930	35930	35934	35934	35934	35934	35924	35924	35924	35924	35925	35925	35925	35925	35923	35923	35923	35923	35927	35927	35927	35927	35914	35914	35914	35914	999999	999999	999999	0	35904	35904	35904	35904	35931	35931	35931	35931	35951
35930	35930	35922	999999	35929	35929	35921	999999	35956	35956	35956	35948	35924	35924	35916	999999	35928	35928	35920	999999	35952	35952	35952	35944	35939	35939	35931	999999	35930	35930	35922	999999	35934	35934	35926	999999	35924	35924	35916	999999	35925	35925	35917	999999	35923	35923	35915	999999	35927	35927	35919	999999	35914	35906	999999	999999	0	999999	999999	999999	35904	35896	999999	999999	35931	35931	35923	999999	35951
35935	35935	35935	35927	35933	35933	35933	35925	35956	35956	999999	999999	35926	35926	35926	35918	35924	35924	35924	35916	35948	35948	999999	999999	35935	35935	35935	35927	35931	35931	35931	35923	35937	35937	35937	35929	35918	35918	35910	999999	35930	35930	35930	35922	35921	35921	35921	35913	35923	35923	35923	35915	35920	35920	35920	35912	35904	35904	35896	999999	999999	0	999999	999999	35929	35929	35929	35921	35951
35935	35935	35935	999999	35933	35933	35933	999999	35956	35956	35956	999999	35926	35926	35926	999999	35924	35924	35924	999999	35948	35948	35948	999999	35935	35935	35935	999999	35931	35931	35931	999999	35937	35937	35937	999999	35918	35918	35918	35910	35930	35930	35930	999999	35921	35921	35921	999999	35923	35923	35923	999999	35920	35920	35920	999999	35904	35904	35904	35896	999999	999999	0	999999	35929	35929	35929	999999	35951
35935	35935	35935	35935	35933	35933	35933	35933	35956	35956	35956	35956	35926	35926	35926	35926	35924	35924	35924	35924	35948	35948	35948	35948	35935	35935	35935	35935	35931	35931	35931	35931	35937	35937	35937	35937	35918	35918	35918	35918	35930	35930	35930	35930	35921	35921	35921	35921	35923	35923	35923	35923	35920	35920	35920	35920	35904	35904	35904	35904	999999	999999	999999	0	35929	35929	35929	35929	35951
35935	35935	35927	999999	35933	35933	35925	999999	35956	35956	35956	35948	35926	35926	35918	999999	35924	35924	35916	999999	35948	35948	35948	35940	35935	35935	35927	999999	35931	35931	35923	999999	35937	35937	35929	999999	35918	35910	999999	999999	35930	35930	35922	999999	35921	35921	35913	999999	35923	35923	35915	999999	35920	35920	35912	999999	35904	35896	999999	999999	0	999999	999999	999999	35929	35929	35921	999999	35951
35940	35940	999999	999999	35927	35927	35927	35919	35928	35928	35928	35920	35920	35920	35920	35912	35912	35912	35904	999999	35925	35925	35925	35917	35915	35915	35907	999999	35911	35911	35903	999999	35922	35922	35922	35914	35922	35922	35922	35914	35932	35932	35932	35924	35906	35906	35898	999999	35909	35909	35901	999999	35933	35933	35933	35925	35931	35931	35931	35923	35929	35929	35929	35921	999999	0	999999	999999	35926
35940	35940	35940	999999	35927	35927	35927	999999	35928	35928	35928	999999	35920	35920	35920	999999	35912	35912	35912	35904	35925	35925	35925	999999	35915	35915	35915	35907	35911	35911	35911	35903	35922	35922	35922	999999	35922	35922	35922	999999	35932	35932	35932	999999	35906	35906	35906	35898	35909	35909	35909	35901	35933	35933	35933	999999	35931	35931	35931	999999	35929	35929	35929	999999	999999	999999	0	999999	35926
35940	35940	35940	35940	35927	35927	35927	35927	35928	35928	35928	35928	35920	35920	35920	35920	35912	35912	35912	35912	35925	35925	35925	35925	35915	35915	35915	35915	35911	35911	35911	35911	35922	35922	35922	35922	35922	35922	35922	35922	35932	35932	35932	35932	35906	35906	35906	35906	35909	35909	35909	35909	35933	35933	35933	35933	35931	35931	35931	35931	35929	35929	35929	35929	999999	999999	999999	0	35926
35940	35940	35940	35932	35927	35927	35919	999999	35928	35928	35920	999999	35920	35920	35912	999999	35912	35904	999999	999999	35925	35925	35917	999999	35915	35907	999999	999999	35911	35903	999999	999999	35922	35922	35914	999999	35922	35922	35914	999999	35932	35932	35924	999999	35906	35898	999999	999999	35909	35901	999999	999999	35933	35933	35925	999999	35931	35931	35923	999999	35929	35929	35921	999999	0	999999	999999	999999	35926
35941	35941	999999	999999	35926	35926	35926	35918	35906	35906	35898	999999	35927	35927	35927	35919	35940	35940	35940	35932	35944	35944	999999	999999	35940	35940	35940	35932	35918	35918	35910	999999	35917	35917	35909	999999	35950	35950	999999	999999	35936	35936	35936	35928	35932	35932	35932	35924	35937	35937	35937	35929	35944	35944	999999	999999	35951	35951	999999	999999	35951	35951	999999	999999	35926	35926	35926	35918	999999
GTSP_SET_SECTION:
1 1 2 3 4 -1
2 5 6 7 8 -1
3 9 10 11 12 -1
4 13 14 15 16 -1
5 17 18 19 20 -1
6 21 22 23 24 -1
7 25 26 27 28 -1
8 29 30 31 32 -1
9 33 34 35 36 -1
10 37 38 39 40 -1
11 41 42 43 44 -1
12 45 46 47 48 -1
13 49 50 51 52 -1
14 53 54 55 56 -1
15 57 58 59 60 -1
16 61 62 63 64 -1
17 65 66 67 68 -1
18 69 70 71 72-1
19 73 -1
EOF